&inputpp
 outdir='temp',
 prefix='bariumnitrate',
 plot_num=3,
 emin=-25,
 emax=3,
 delta_e=0.1,
 degauss_ldos=0.2,
 use_gauss_ldos=.true.
/
&plot
 iflag=3,
 output_format=6,
 fileout='bariumnitrate_ldos.cube',
/
