&CONTROL
   calculation      = 'scf'
   verbosity        = 'high'
   restart_mode     = 'from_scratch'
   outdir           = 'temp'
   prefix           = 'bariumnitrate'
   pseudo_dir       = '/home/fiedlerl/tools/pslibrary/pbe/PSEUDOPOTENTIALS/'
/
&SYSTEM
   ibrav            = 0
   nbnd             = 120
   ecutwfc          = 50
   ecutrho          = 200
   nosym            = .true.
   noinv            = .true.
   occupations      = 'smearing'
   degauss          = 0.0018874
   smearing         = 'fermi-dirac'
   ntyp             = 3
   nat              = 36
/
&ELECTRONS
   conv_thr         = 0.000144
   mixing_mode      = 'plain'
   mixing_beta      = 0.1
/
&IONS
/
&CELL
/

ATOMIC_SPECIES
Ba 137.33 Ba_ncrs_v050_pbe.upf
N 14.00 N_ncrs_v050_pbe.upf
O 16.00 O_ncrs_v050_pbe.upf

K_POINTS automatic
1 1 1  0 0 0

CELL_PARAMETERS angstrom
8.1531395599999978    0.0000000000000000    0.0000000000000005
0.0000000000000013    8.1531395599999978    0.0000000000000005
0.0000000000000000    0.0000000000000000    8.1531395599999978

ATOMIC_POSITIONS angstrom
Ba  0.0000000000000007  4.0765697799999989  4.0765697799999989
Ba  4.0765697799999998  4.0765697799999989  0.0000000000000005
Ba  4.0765697799999989  0.0000000000000000  4.0765697799999989
Ba  0.0000000000000000  0.0000000000000000  0.0000000000000000
N  2.8072878718596610  2.8072878718596606  2.8072878718596610
N  2.8072878718596606  1.2692819081403379  6.8838576518596595
N  1.2692819081403390  6.8838576518596595  2.8072878718596610
N  6.8838576518596604  2.8072878718596606  1.2692819081403386
N  5.3458516881403382  5.3458516881403373  5.3458516881403382
N  1.2692819081403388  5.3458516881403373  6.8838576518596595
N  6.8838576518596595  1.2692819081403379  5.3458516881403382
N  5.3458516881403382  6.8838576518596595  1.2692819081403388
O  6.3482002962746504  2.3143008690072615  0.2396136784369833
O  1.7622689109927390  7.9135258815630154  2.2716305162746520
O  1.8049392637253487  6.3908706490072609  3.8369561015630169
O  2.2716305162746520  1.7622689109927376  7.9135258815630154
O  2.2716305162746520  2.3143008690072615  3.8369561015630165
O  3.8369561015630169  2.2716305162746515  2.3143008690072620
O  2.3143008690072620  3.8369561015630165  2.2716305162746515
O  1.7622689109927383  4.3161834584369814  6.3482002962746513
O  7.9135258815630154  1.8049392637253476  5.8388386909927368
O  5.8388386909927368  7.9135258815630154  1.8049392637253485
O  0.2396136784369837  5.8815090437253463  6.3908706490072609
O  4.3161834584369823  6.3482002962746504  1.7622689109927383
O  6.3908706490072609  0.2396136784369827  5.8815090437253463
O  6.3482002962746504  1.7622689109927376  4.3161834584369823
O  5.8815090437253472  6.3908706490072609  0.2396136784369835
O  1.8049392637253485  5.8388386909927359  7.9135258815630154
O  5.8815090437253472  5.8388386909927359  4.3161834584369823
O  4.3161834584369823  5.8815090437253463  5.8388386909927368
O  5.8388386909927368  4.3161834584369814  5.8815090437253463
O  6.3908706490072618  3.8369561015630165  1.8049392637253483
O  0.2396136784369837  6.3482002962746504  2.3143008690072620
O  2.3143008690072615  0.2396136784369827  6.3482002962746504
O  7.9135258815630154  2.2716305162746515  1.7622689109927383
O  3.8369561015630169  1.8049392637253476  6.3908706490072609
