&CONTROL
   calculation      = 'scf'
   verbosity        = 'high'
   restart_mode     = 'from_scratch'
   tstress          = .true.
   tprnfor          = .true.
   outdir           = 'temp'
   prefix           = 'Be'
   pseudo_dir       = '/home/fiedlerl/tools/local_pseudopotentials/OEPP_lib-master-OEPP/OEPP/UPF/'
/
&SYSTEM
   ibrav            = 0
   nbnd             = 4
   ecutwfc          = 40
   ecutrho          = 160
   nosym            = .true.
   noinv            = .true.
   occupations      = 'smearing'
   degauss          = 0.0018874
   smearing         = 'fermi-dirac'
   ntyp             = 1
   nat              = 2
/
&ELECTRONS
   conv_thr         = 0.00002
   mixing_mode      = 'plain'
   mixing_beta      = 0.1
/
&IONS
/
&CELL
/

ATOMIC_SPECIES
Be 9.0121831 Be_OEPP_PZ.UPF

K_POINTS automatic
8 8 8  0 0 0

CELL_PARAMETERS angstrom
2.25982586776780 0.00000000000000 0.00000000000000
-1.12991293388390 1.95706569713361 0.00000000000000
0.00000000000000 0.00000000000000 3.56987856087494

ATOMIC_POSITIONS angstrom
Be 1.5845934687 0.2934270965 2.6805284466 
Be -0.4546806237 1.6636393592 0.8893495534 

